# 1) Initialization
units lj
dimension 3
atom_style atomic
boundary p p p

# 2) System definition
pair_style lj/cut 4.0
read_data improved.min.data

region cyl_in cylinder z 0 0 10 INF INF side in
region cyl_out cylinder z 0 0 10 INF INF side out
group grp_t1 type 1
group grp_t2 type 2
group grp_in region cyl_in
group grp_out region cyl_out
group grp_t1_in intersect grp_t1 grp_in
group grp_t2_out intersect grp_t2 grp_out
delete_atoms group grp_t1_in
delete_atoms group grp_t2_out

# delete no longer needed groups
group grp_in delete
group grp_out delete
group grp_t1_in delete
group grp_t2_out delete

variable n1_in equal count(grp_t1,cyl_in)
variable n2_in equal count(grp_t2,cyl_in)

compute coor12 grp_t1 coord/atom cutoff 2 group grp_t2
compute sumcoor12 grp_t1 reduce ave c_coor12

# 3) Settings
# 4) Monitoring
thermo 1000
thermo_style custom step temp pe ke etotal press v_n1_in v_n2_in c_sumcoor12

# Define variables
variable mystep equal step
variable mytemp equal temp
variable mype equal pe
variable myke equal ke
variable myetotal equal etotal 
variable mypress equal press
variable myn1_in equal v_n1_in
variable myn2_in equal v_n2_in
variable mysumcoor12 equal c_sumcoor12

# Use fix print to output
fix print_data all print 1000 "${mystep} ${mytemp} ${mype} ${myke} ${myetotal} ${mypress} ${myn1_in} ${myn2_in} ${mysumcoor12}" file number_data.txt screen no title "step temp pot_eng kin_eng tot_eng press v_n1_in v_n2_in c_sumcoor12"

# Existing dump for atom trajectories
dump mydmp all atom 100 dump.lammlstrj

# 5) Run
velocity all create 1.0 49284 mom yes dist gaussian
fix mynve all nve
fix mylgv all langevin 1.0 1.0 0.1 10917 zero yes
timestep 0.005
run 300000